K=5;
N=7;
P=[11 50 25 11 41];
R=[39 48 9 15 42];
A=[4 5 3 4 6];
C=[7 39 12 38 47];
M=[
	[0  27 37 6  30 8  35]
	[27 0  28 33 14 42 30]
	[37 28 0  35 43 43 31]
	[6  33 35 0  23 15 50]
	[30 14 43 23 0  43 32]
	[8  42 43 15 43 0  23]
	[35 30 31 50 32 23 0]
];